33D32945 STP File, STP Format Version 1.0

SECTION Comments
Name "carioca_3_11_03"
Creator "Marcia Fampa, Jon Lee & Wendel Melo"
Problem "Euclidean Steiner Tree Problem"
Remark "Converted automatically"
END

SECTION Graph
Nodes 11
END

SECTION Coordinates
DDD 1 0.11756340000000 0.69914307000000 0.88286908000000 
DDD 2 0.03975006000000 0.36173100000000 0.61937195000000 
DDD 3 0.23687606000000 0.15188897000000 0.07729025000000 
DDD 4 0.47595947000000 0.61120940000000 0.90432303000000 
DDD 5 0.15463287000000 0.45332142000000 0.18618194000000 
DDD 6 0.49544554000000 0.27583019000000 0.53403397000000 
DDD 7 0.35549638000000 0.83902480000000 0.65041296000000 
DDD 8 0.18142556000000 0.89567068000000 0.53841884000000 
DDD 9 0.92662902000000 0.81106142000000 0.76751779000000 
DDD 10 0.13511219000000 0.31876328000000 0.86209970000000 
DDD 11 0.85760192000000 0.21484432000000 0.85411872000000 
END

EOF
